# RBC straching test, optical tweezer.
# set the ends as groups of particle.
# 500*2% = 10 on each end. So 1pN is mapped to 2.44 per particle.
# z>3.751   ->   group le
# z<-3.69   ->   group re



# echo screen

dimension 		3
units 			lj
boundary 		p p p
newton 			off


variable 		nspecies equal 1
atom_style 		tdpd/rbc/meso ${nspecies}
neighbor		1.0 bin
neigh_modify	delay 0 every 1 check no
timestep 		0.001

read_data 		edit_RBC500.data

group			le id 34 5 278 128 432 132 260 289 107 264
group			re id 335 410 297 273 382 173 413 3 424 74

run_style 		mvv/meso

pair_style		tdpd/meso 	1.5 	2313214 ${nspecies}
pair_coeff		* * 4.0 	30.0 	2.38147	0.25  	1.5 	1.5  		2.0 	2.0 	

bond_style		wlc_pow_all_visc/meso
bond_coeff		*	0.1	2.2 	130 	2.0 30.0 	90.0         

angle_style 	areavolume/meso
angle_coeff		* 4900.0 132.868 5000.0 92.452 100.0

dihedral_style 	bend/meso
dihedral_coeff	* 6.117379 0.0


fix 			integrator_f all nve/meso

compute 		conc1 all conc/tdpd/meso 1
thermo_style	custom step press c_conc1
thermo			1000

fix				force1 le addforce/meso 0 0 ${sforce}
fix				force2 re addforce/meso 0 0 -${sforce}


variable 		output_steps equal 1000
dump 			dump1 all atom ${output_steps} opt_twzr_${sforce}.lammpstrj


run				20000
