echo screen

############### set variables for convenience

### model parameters

variable	kBT		equal 1.0
variable	seed		equal 2654868
variable	cut_att		equal 1.00
variable	cut_rep		equal 0.75
variable	cut_rho		equal 0.75
variable	cut_phi		equal 1.00
variable	skin		equal 0.3*${cut_att}

variable	rho_solids	equal 8.0

variable	A_att_11	equal -40 # fluid1--fluid1
variable	A_att_12	equal -40 # fluid1--fluid2
variable	A_att_13	equal -40 # fluid1--solid3
variable	A_att_14	equal -40 # fluid1--solid4
variable	A_att_15	equal -40 # fluid1--solid5
variable	A_att_22	equal -40 # fluid2--fluid2
variable	A_att_23	equal -40 # fluid2--solid3
variable	A_att_24	equal -40 # fluid2--solid4
variable	A_att_25	equal -40 # fluid2--solid5
variable	A_att_33	equal -40 # solid3--solid3
variable	A_att_34	equal -40 # solid3--solid4
variable	A_att_35	equal -40 # solid3--solid5
variable	A_att_44	equal -40 # solid4--solid4
variable	A_att_45	equal -40 # solid4--solid5
variable	A_att_55	equal -40 # fluid2--fluid2

variable	B_rep		equal 25
variable	gamma		equal 4.5 # 18.0

variable	type_fluid1	equal 1
variable	type_fluid2	equal 2
variable	type_solid3	equal 3
variable	type_solid4	equal 4
variable	type_solid5	equal 5

variable	phi_c		equal 0.5

variable	mass_fluid1	equal 1
variable	mass_fluid2	equal 1
variable	mass_solid3	equal 1
variable	mass_solid4	equal 1
variable	mass_solid5	equal 1

### domain parameters

variable	xlo		equal  0
variable	xhi		equal  251
variable	ylo		equal  0
variable	yhi		equal  251
variable	zlo		equal  0
variable	zhi		equal  250

### runtime parameters

variable        nprint          equal round(100.0)
variable        nthermo		equal round(100.0)
variable        ndump           equal round(1000.0)
variable        nsteps		equal round(10000.0)
variable	dt		equal 0.01

############### set units, dimension and global boundary type

units		lj
dimension	3
boundary	p p p
neighbor	${skin} bin
neigh_modify	every 1 delay 0 check yes
#atom_style	mdpd/atomic/meso 4
atom_style	mdpd/atomic/meso 8

region          box block 0 10 0 10 0 10 units box
create_box      2 box
create_atoms    2 random 7000 574856 box

group		group_fluid1 type ${type_fluid1}
group		group_fluid2 type ${type_fluid2}
group		group_solid3 type ${type_solid3}
group		group_solid4 type ${type_solid4}
group		group_solid5 type ${type_solid5}

group           group_fluids union group_fluid1 group_fluid2
group           group_slab45 union group_solid4 group_solid5   # left and right slabs
group           group_solids union group_slab45 group_solid3
group		group_dump   union group_slab45 group_fluids
group           group_run    union group_slab45 group_fluids

############### specify bead-to-bead pair style and coefficients

pair_style	mdpd/meso ${kBT} ${cut_att} ${seed} group_fluids group_solids
pair_coeff	1 1 ${A_att_11} ${B_rep} ${gamma} ${cut_att} ${cut_rep}
pair_coeff	1 2 ${A_att_12} ${B_rep} ${gamma} ${cut_att} ${cut_rep}
#pair_coeff	1 3 ${A_att_13} ${B_rep} ${gamma} ${cut_att} ${cut_rep}
#pair_coeff	1 4 ${A_att_14} ${B_rep} ${gamma} ${cut_att} ${cut_rep}
#pair_coeff	1 5 ${A_att_15} ${B_rep} ${gamma} ${cut_att} ${cut_rep}
pair_coeff	2 2 ${A_att_22} ${B_rep} ${gamma} ${cut_att} ${cut_rep}
#pair_coeff	2 3 ${A_att_23} ${B_rep} ${gamma} ${cut_att} ${cut_rep}
#pair_coeff	2 4 ${A_att_24} ${B_rep} ${gamma} ${cut_att} ${cut_rep}
#pair_coeff	2 5 ${A_att_25} ${B_rep} ${gamma} ${cut_att} ${cut_rep}
#pair_coeff	3 3 ${A_att_33} ${B_rep} ${gamma} ${cut_att} ${cut_rep}
#pair_coeff	3 4 ${A_att_34} ${B_rep} ${gamma} ${cut_att} ${cut_rep}
#pair_coeff	3 5 ${A_att_35} ${B_rep} ${gamma} ${cut_att} ${cut_rep}
#pair_coeff	4 4 ${A_att_44} ${B_rep} ${gamma} ${cut_att} ${cut_rep}
#pair_coeff	4 5 ${A_att_45} ${B_rep} ${gamma} ${cut_att} ${cut_rep}
#pair_coeff	5 5 ${A_att_55} ${B_rep} ${gamma} ${cut_att} ${cut_rep}

############### specify unit mass

mass		${type_fluid1} ${mass_fluid1}
mass		${type_fluid2} ${mass_fluid2}
#mass		${type_solid3} ${mass_solid3}
#mass		${type_solid4} ${mass_solid4}
#mass		${type_solid5} ${mass_solid5}

############### Arbitrary Boundary Condition

fix		BC all aboundary/rho/meso wall group_solids mobile group_fluids rho_wall ${rho_solids} cut_phi ${cut_phi} phi_c ${phi_c} cut_rho ${cut_rho}

############### time integration

fix             TIME_INTEGRATE group_run nve/meso
run_style       mvv/meso

############### specify thermodynamic output frequency

thermo		100

############### specify time step size

timestep	${dt}

############### start running

run		10000
